1000
500 500
1 350 704
2 350 53
3 350 245
4 350 32
5 350 64
6 350 514
7 349 432
8 349 82
9 349 852
10 348 447
11 347 879
12 347 45
13 346 57
14 346 656
15 346 666
16 346 725
17 346 14
18 346 335
19 346 411
20 345 335
21 345 157
22 345 498
23 345 946
24 345 978
25 344 253
26 344 924
27 344 440
28 344 138
29 344 18
30 343 162
31 343 427
32 343 572
33 342 413
34 342 924
35 341 3
36 341 873
37 341 817
38 341 746
39 341 147
40 340 989
41 340 976
42 340 441
43 339 653
44 339 251
45 339 968
46 337 422
47 337 940
48 337 553
49 337 174
50 336 962
51 335 274
52 334 619
53 334 225
54 334 105
55 334 715
56 334 151
57 334 494
58 333 792
59 333 356
60 333 532
61 333 133
62 332 730
63 331 555
64 331 40
65 331 211
66 331 211
67 331 575
68 330 20
69 330 259
70 330 694
71 330 809
72 329 476
73 329 864
74 329 227
75 328 617
76 328 928
77 327 684
78 327 649
79 327 303
80 327 931
81 327 839
82 327 732
83 326 649
84 326 829
85 326 296
86 326 387
87 325 580
88 325 654
89 325 8
90 324 841
91 323 307
92 322 955
93 322 283
94 322 792
95 322 595
96 322 277
97 322 53
98 322 856
99 321 681
100 321 91
101 320 245
102 320 457
103 320 81
104 320 618
105 320 756
106 320 720
107 320 778
108 319 244
109 319 747
110 319 497
111 319 890
112 318 93
113 318 354
114 318 265
115 318 370
116 317 764
117 317 386
118 316 954
119 315 47
120 315 868
121 314 982
122 314 235
123 314 635
124 314 516
125 313 264
126 313 254
127 313 351
128 313 316
129 312 642
130 312 488
131 311 486
132 311 69
133 311 142
134 309 843
135 309 508
136 309 707
137 309 89
138 308 110
139 307 586
140 307 70
141 307 144
142 307 863
143 307 196
144 307 807
145 307 987
146 306 84
147 306 997
148 305 691
149 305 277
150 305 960
151 305 125
152 305 125
153 304 448
154 304 8
155 304 134
156 303 182
157 303 325
158 303 867
159 303 671
160 302 482
161 302 420
162 302 697
163 302 182
164 301 620
165 300 341
166 300 248
167 300 117
168 299 308
169 299 482
170 298 783
171 297 589
172 297 989
173 297 465
174 296 21
175 296 713
176 295 903
177 295 886
178 294 918
179 293 325
180 293 390
181 293 950
182 293 572
183 292 854
184 292 109
185 292 205
186 292 870
187 292 857
188 292 632
189 291 229
190 291 946
191 291 296
192 291 170
193 291 421
194 290 61
195 289 676
196 289 550
197 289 95
198 289 4
199 288 283
200 288 472
201 288 669
202 288 180
203 288 846
204 288 817
205 288 50
206 288 301
207 287 936
208 287 611
209 287 970
210 286 676
211 286 845
212 286 39
213 286 2
214 285 472
215 285 137
216 284 262
217 284 887
218 284 763
219 284 120
220 284 201
221 283 156
222 283 718
223 283 349
224 282 675
225 282 955
226 282 966
227 280 58
228 280 480
229 280 371
230 279 840
231 278 814
232 278 480
233 277 688
234 277 800
235 277 12
236 277 643
237 276 851
238 276 734
239 276 82
240 275 766
241 275 444
242 275 819
243 274 424
244 274 279
245 274 782
246 273 227
247 273 113
248 273 231
249 273 820
250 273 751
251 272 213
252 272 249
253 271 972
254 271 573
255 270 420
256 270 245
257 270 1
258 270 306
259 269 691
260 268 441
261 268 785
262 267 48
263 267 687
264 266 831
265 266 646
266 266 754
267 266 582
268 266 26
269 266 607
270 266 664
271 265 199
272 265 699
273 265 360
274 264 898
275 264 662
276 264 707
277 264 930
278 263 7
279 263 638
280 263 834
281 262 298
282 262 294
283 261 286
284 260 229
285 260 316
286 260 604
287 259 302
288 259 856
289 259 920
290 258 294
291 258 606
292 258 349
293 258 841
294 257 674
295 257 610
296 257 649
297 257 353
298 256 460
299 256 263
300 255 8
301 255 495
302 255 480
303 254 296
304 253 407
305 253 879
306 253 108
307 252 656
308 252 662
309 251 142
310 251 417
311 251 103
312 251 122
313 250 453
314 250 924
315 250 736
316 250 887
317 250 211
318 250 522
319 250 742
320 250 365
321 249 365
322 249 327
323 249 843
324 249 7
325 248 292
326 248 31
327 248 994
328 247 212
329 247 308
330 247 148
331 246 168
332 245 626
333 245 690
334 245 16
335 245 970
336 244 67
337 244 55
338 244 842
339 243 100
340 243 473
341 243 124
342 243 862
343 242 901
344 242 67
345 242 551
346 241 857
347 241 62
348 241 454
349 241 758
350 240 823
351 240 154
352 240 254
353 240 257
354 239 866
355 239 672
356 238 198
357 238 641
358 238 278
359 237 784
360 237 304
361 236 792
362 236 733
363 236 297
364 236 887
365 235 531
366 235 755
367 235 494
368 234 733
369 234 837
370 234 993
371 234 93
372 234 459
373 233 548
374 233 185
375 233 345
376 233 40
377 232 783
378 232 317
379 231 939
380 231 432
381 231 319
382 230 493
383 229 218
384 229 423
385 229 578
386 229 490
387 229 204
388 228 635
389 228 621
390 227 121
391 227 870
392 227 490
393 227 64
394 227 707
395 227 286
396 226 996
397 226 590
398 226 320
399 226 89
400 226 570
401 225 138
402 225 240
403 225 45
404 225 766
405 224 954
406 224 355
407 224 840
408 224 683
409 223 59
410 223 61
411 223 541
412 223 318
413 223 439
414 222 141
415 222 275
416 222 407
417 221 302
418 220 462
419 220 148
420 219 475
421 219 6
422 219 755
423 218 891
424 218 41
425 217 894
426 217 583
427 217 623
428 217 396
429 216 253
430 216 469
431 216 557
432 216 57
433 216 131
434 215 347
435 215 173
436 215 655
437 214 710
438 214 247
439 214 858
440 213 450
441 213 696
442 213 144
443 212 878
444 212 6
445 212 111
446 212 870
447 212 500
448 212 308
449 212 950
450 212 426
451 211 404
452 211 0
453 211 485
454 211 621
455 211 439
456 210 226
457 210 395
458 210 632
459 210 511
460 210 745
461 210 679
462 209 465
463 209 36
464 209 628
465 208 146
466 207 533
467 207 296
468 207 13
469 207 190
470 207 317
471 207 352
472 207 222
473 206 17
474 206 362
475 206 619
476 205 190
477 205 109
478 204 947
479 204 490
480 204 485
481 204 916
482 203 920
483 203 523
484 202 903
485 201 606
486 201 417
487 201 32
488 200 410
489 200 912
490 199 805
491 199 969
492 199 418
493 198 655
494 198 234
495 198 922
496 198 180
497 197 929
498 197 113
499 195 757
500 195 884
501 195 22
502 195 727
503 195 180
504 195 795
505 194 89
506 194 396
507 193 18
508 193 562
509 193 658
510 193 100
511 192 862
512 192 6
513 192 653
514 192 473
515 192 508
516 191 688
517 190 513
518 190 312
519 190 522
520 190 940
521 190 545
522 189 13
523 189 220
524 189 637
525 188 967
526 188 157
527 188 234
528 187 144
529 187 718
530 187 251
531 186 523
532 186 462
533 186 992
534 185 427
535 185 159
536 185 549
537 184 699
538 184 265
539 184 456
540 184 899
541 184 347
542 183 885
543 183 174
544 183 557
545 183 532
546 182 724
547 182 861
548 182 724
549 182 263
550 182 235
551 182 522
552 181 738
553 180 562
554 180 635
555 180 551
556 180 688
557 180 128
558 180 469
559 179 308
560 179 99
561 179 121
562 179 612
563 179 725
564 179 120
565 179 233
566 178 508
567 177 620
568 177 352
569 175 532
570 175 596
571 175 901
572 174 646
573 174 21
574 173 944
575 173 181
576 173 522
577 172 945
578 172 713
579 172 686
580 172 287
581 171 47
582 171 89
583 170 324
584 170 30
585 170 719
586 170 979
587 170 808
588 170 209
589 170 463
590 169 947
591 168 478
592 168 641
593 168 572
594 168 71
595 167 815
596 167 449
597 167 382
598 166 498
599 166 706
600 166 75
601 166 963
602 166 362
603 165 742
604 165 603
605 165 738
606 165 404
607 165 871
608 164 867
609 164 292
610 164 626
611 164 967
612 164 405
613 163 755
614 163 938
615 163 84
616 163 15
617 162 488
618 162 756
619 162 168
620 161 993
621 161 255
622 161 431
623 161 720
624 161 405
625 160 660
626 160 899
627 160 94
628 159 853
629 159 441
630 159 659
631 158 114
632 158 52
633 158 728
634 158 941
635 157 948
636 157 808
637 157 871
638 157 851
639 157 380
640 156 415
641 156 535
642 156 865
643 156 620
644 155 883
645 155 367
646 153 195
647 153 693
648 153 29
649 153 29
650 153 27
651 152 220
652 152 621
653 151 594
654 151 559
655 151 487
656 151 381
657 151 361
658 151 613
659 151 663
660 150 122
661 150 359
662 150 375
663 150 498
664 150 991
665 149 917
666 149 427
667 148 486
668 148 6
669 148 212
670 148 329
671 148 546
672 147 30
673 147 509
674 147 791
675 147 667
676 146 374
677 146 955
678 146 140
679 146 982
680 145 473
681 144 559
682 144 453
683 144 183
684 144 914
685 143 216
686 143 449
687 143 745
688 143 663
689 142 829
690 141 197
691 141 541
692 140 285
693 140 253
694 140 816
695 140 514
696 139 173
697 139 116
698 138 853
699 137 620
700 137 692
701 137 858
702 137 183
703 137 800
704 136 743
705 136 951
706 136 562
707 136 566
708 136 1
709 135 106
710 135 790
711 134 168
712 134 33
713 134 557
714 133 80
715 133 774
716 133 923
717 133 666
718 133 199
719 133 25
720 133 540
721 132 39
722 132 303
723 132 198
724 132 658
725 132 182
726 131 86
727 131 394
728 131 334
729 131 940
730 131 859
731 131 116
732 131 85
733 130 603
734 129 882
735 129 773
736 129 562
737 128 366
738 128 436
739 127 59
740 127 658
741 127 164
742 127 802
743 127 174
744 126 489
745 125 126
746 125 296
747 124 681
748 124 679
749 123 802
750 123 809
751 122 725
752 122 351
753 121 212
754 121 865
755 120 376
756 120 497
757 119 698
758 119 404
759 119 664
760 119 422
761 119 556
762 118 788
763 118 957
764 118 214
765 118 954
766 118 44
767 117 514
768 117 591
769 117 837
770 117 705
771 117 153
772 117 617
773 117 793
774 116 564
775 116 183
776 116 975
777 115 352
778 115 750
779 115 701
780 115 781
781 115 243
782 115 225
783 114 901
784 113 220
785 113 796
786 113 425
787 112 356
788 112 553
789 112 973
790 112 994
791 112 424
792 112 335
793 111 128
794 111 978
795 111 889
796 110 431
797 110 356
798 110 506
799 108 525
800 108 855
801 108 650
802 107 277
803 107 779
804 107 297
805 106 138
806 106 25
807 106 91
808 105 231
809 105 885
810 105 141
811 105 574
812 104 104
813 104 315
814 104 857
815 103 332
816 103 126
817 103 476
818 102 121
819 101 968
820 100 173
821 100 878
822 100 596
823 99 685
824 99 203
825 99 983
826 99 445
827 99 522
828 99 398
829 99 567
830 98 379
831 98 147
832 98 960
833 98 623
834 97 651
835 97 833
836 97 84
837 97 619
838 97 668
839 96 106
840 95 869
841 95 330
842 94 826
843 94 515
844 94 138
845 93 967
846 93 470
847 93 771
848 93 685
849 93 936
850 92 598
851 92 866
852 92 966
853 92 309
854 92 292
855 92 839
856 91 137
857 91 463
858 91 518
859 90 702
860 90 722
861 90 247
862 90 871
863 90 168
864 89 232
865 88 841
866 88 490
867 88 798
868 88 460
869 87 910
870 86 925
871 86 59
872 86 670
873 86 340
874 86 802
875 85 767
876 85 647
877 85 529
878 85 830
879 85 698
880 85 674
881 84 297
882 84 783
883 83 526
884 83 841
885 83 812
886 81 633
887 81 480
888 80 655
889 80 978
890 80 379
891 80 347
892 78 848
893 78 879
894 78 268
895 78 603
896 78 886
897 78 724
898 77 12
899 77 317
900 77 446
901 77 379
902 76 988
903 76 918
904 76 960
905 76 214
906 74 766
907 74 902
908 73 577
909 73 454
910 73 430
911 73 361
912 73 818
913 72 119
914 72 55
915 71 962
916 71 372
917 71 798
918 71 357
919 71 122
920 71 800
921 70 94
922 70 370
923 70 496
924 70 475
925 70 898
926 69 446
927 69 715
928 69 659
929 69 730
930 68 743
931 68 44
932 68 249
933 68 413
934 68 596
935 68 240
936 67 97
937 67 456
938 67 342
939 67 728
940 67 208
941 67 267
942 66 115
943 66 901
944 66 713
945 66 220
946 66 526
947 66 366
948 65 566
949 65 688
950 65 451
951 64 433
952 64 85
953 64 533
954 64 467
955 64 378
956 63 596
957 63 57
958 63 85
959 63 466
960 62 743
961 62 324
962 62 23
963 62 714
964 62 358
965 62 1
966 61 264
967 61 918
968 60 900
969 60 151
970 60 717
971 60 676
972 60 44
973 59 836
974 58 198
975 58 230
976 57 785
977 57 920
978 56 579
979 56 827
980 56 782
981 55 628
982 55 609
983 55 5
984 55 21
985 55 321
986 55 643
987 54 115
988 53 84
989 53 985
990 53 47
991 53 737
992 52 855
993 52 114
994 52 604
995 52 172
996 51 290
997 51 427
998 50 479
999 50 91
1000 50 764
